set Strategy1 := 0 1 2 ;
set Strategy2 := 0 1 2 ;
T := 3
param u
[0,0] 8516.47777583 [0,1] -939.028137501 [0,2] -429.536029168 [1,0] 8189.42604167 [1,1] -824.618075 [1,2] -374.770991667 [2,0] 8386.03429667 [2,1] -936.725010001 [2,2] -431.023200835 [3,0] 309.211055556 [3,1] -46.93475 [3,2] -46.4615166667 ;